(set-info :smt-lib-version 2.6)
(set-logic QF_NIA)
(set-info :source |
 more info in 'N. P. Lopes, L. Aksoy, V. Manquinho, J. Monteiro.
 Optimally Solving the MCM Problem Using Pseudo-Boolean Satisfiability.
 Technical Report RT/43/2010, INESC-ID, Nov. 2010'. |)
(set-info :category "industrial")
(set-info :status unknown)
(declare-fun X2 () Int)
(declare-fun X3 () Int)
(declare-fun X4 () Int)
(declare-fun X5 () Int)
(declare-fun X6 () Int)
(declare-fun X7 () Int)
(declare-fun X8 () Int)
(declare-fun X9 () Int)
(declare-fun X10 () Int)
(declare-fun S0 () Int)
(declare-fun S1 () Int)
(declare-fun S2 () Int)
(declare-fun S3 () Int)
(declare-fun S4 () Int)
(declare-fun S5 () Int)
(declare-fun S6 () Int)
(declare-fun S7 () Int)
(declare-fun S8 () Int)
(declare-fun S9 () Int)
(declare-fun S10 () Int)
(declare-fun S11 () Int)
(declare-fun S12 () Int)
(declare-fun S13 () Int)
(declare-fun S14 () Int)
(declare-fun S15 () Int)
(declare-fun S16 () Int)
(declare-fun S17 () Int)
(define-fun power2 ((x Int)) Bool
  (or (= x 1024) (= x 512) (= x 256) (= x 128) (= x 64) (= x 32) (= x 16) (= x 8) (= x 4) (= x 2) (= x 1)))
(assert (or
 (= X2 (+ S0 S1))
 (= X2 (- S0 S1))
 (= X2 (+ (* 63 S0) S1))
 (= X2 (- (* 63 S0) S1))
 (= X2 (- S0 (* 63 S1)))
 (= X2 (+ (* 63 S0) (* 63 S1)))
 (= X2 (- (* 63 S0) (* 63 S1)))
 (= X2 (+ (* 63 S0) (* 79 S1)))
 (= X2 (- (* 63 S0) (* 79 S1)))
 (= X2 (- (* 79 S0) (* 63 S1)))
 (= X2 (+ (* 79 S0) S1))
 (= X2 (- (* 79 S0) S1))
 (= X2 (- S0 (* 79 S1)))
 (= X2 (+ (* 79 S0) (* 79 S1)))
 (= X2 (- (* 79 S0) (* 79 S1)))
))
(assert (and (> X2 0) (< X2 2048) (power2 S0) (power2 S1)))
(assert (or
 (= X3 (+ (* 63 S2) S3))
 (= X3 (- (* 63 S2) S3))
 (= X3 (- S2 (* 63 S3)))
 (= X3 (+ (* 63 S2) (* 63 S3)))
 (= X3 (- (* 63 S2) (* 63 S3)))
 (= X3 (+ (* 63 S2) (* 79 S3)))
 (= X3 (- (* 63 S2) (* 79 S3)))
 (= X3 (- (* 79 S2) (* 63 S3)))
 (= X3 (+ (* 63 S2) (* X2 S3)))
 (= X3 (- (* 63 S2) (* X2 S3)))
 (= X3 (- (* X2 S2) (* 63 S3)))
 (= X3 (+ (* 79 S2) S3))
 (= X3 (- (* 79 S2) S3))
 (= X3 (- S2 (* 79 S3)))
 (= X3 (+ (* 79 S2) (* 79 S3)))
 (= X3 (- (* 79 S2) (* 79 S3)))
 (= X3 (+ (* 79 S2) (* X2 S3)))
 (= X3 (- (* 79 S2) (* X2 S3)))
 (= X3 (- (* X2 S2) (* 79 S3)))
 (= X3 (+ (* X2 S2) S3))
 (= X3 (- (* X2 S2) S3))
 (= X3 (- S2 (* X2 S3)))
 (= X3 (+ (* X2 S2) (* X2 S3)))
 (= X3 (- (* X2 S2) (* X2 S3)))
))
(assert (and (> X3 0) (< X3 2048) (power2 S2) (power2 S3)))
(assert (or
 (= X4 (+ (* 63 S4) S5))
 (= X4 (- (* 63 S4) S5))
 (= X4 (- S4 (* 63 S5)))
 (= X4 (+ (* 63 S4) (* 63 S5)))
 (= X4 (- (* 63 S4) (* 63 S5)))
 (= X4 (+ (* 63 S4) (* 79 S5)))
 (= X4 (- (* 63 S4) (* 79 S5)))
 (= X4 (- (* 79 S4) (* 63 S5)))
 (= X4 (+ (* 63 S4) (* X2 S5)))
 (= X4 (- (* 63 S4) (* X2 S5)))
 (= X4 (- (* X2 S4) (* 63 S5)))
 (= X4 (+ (* 63 S4) (* X3 S5)))
 (= X4 (- (* 63 S4) (* X3 S5)))
 (= X4 (- (* X3 S4) (* 63 S5)))
 (= X4 (+ (* 79 S4) S5))
 (= X4 (- (* 79 S4) S5))
 (= X4 (- S4 (* 79 S5)))
 (= X4 (+ (* 79 S4) (* 79 S5)))
 (= X4 (- (* 79 S4) (* 79 S5)))
 (= X4 (+ (* 79 S4) (* X2 S5)))
 (= X4 (- (* 79 S4) (* X2 S5)))
 (= X4 (- (* X2 S4) (* 79 S5)))
 (= X4 (+ (* 79 S4) (* X3 S5)))
 (= X4 (- (* 79 S4) (* X3 S5)))
 (= X4 (- (* X3 S4) (* 79 S5)))
 (= X4 (+ (* X2 S4) S5))
 (= X4 (- (* X2 S4) S5))
 (= X4 (- S4 (* X2 S5)))
 (= X4 (+ (* X2 S4) (* X2 S5)))
 (= X4 (- (* X2 S4) (* X2 S5)))
 (= X4 (+ (* X2 S4) (* X3 S5)))
 (= X4 (- (* X2 S4) (* X3 S5)))
 (= X4 (- (* X3 S4) (* X2 S5)))
 (= X4 (+ (* X3 S4) S5))
 (= X4 (- (* X3 S4) S5))
 (= X4 (- S4 (* X3 S5)))
 (= X4 (+ (* X3 S4) (* X3 S5)))
 (= X4 (- (* X3 S4) (* X3 S5)))
))
(assert (and (> X4 0) (< X4 2048) (power2 S4) (power2 S5)))
(assert (or
 (= X5 (+ (* 63 S6) S7))
 (= X5 (- (* 63 S6) S7))
 (= X5 (- S6 (* 63 S7)))
 (= X5 (+ (* 63 S6) (* 63 S7)))
 (= X5 (- (* 63 S6) (* 63 S7)))
 (= X5 (+ (* 63 S6) (* 79 S7)))
 (= X5 (- (* 63 S6) (* 79 S7)))
 (= X5 (- (* 79 S6) (* 63 S7)))
 (= X5 (+ (* 63 S6) (* X2 S7)))
 (= X5 (- (* 63 S6) (* X2 S7)))
 (= X5 (- (* X2 S6) (* 63 S7)))
 (= X5 (+ (* 63 S6) (* X3 S7)))
 (= X5 (- (* 63 S6) (* X3 S7)))
 (= X5 (- (* X3 S6) (* 63 S7)))
 (= X5 (+ (* 63 S6) (* X4 S7)))
 (= X5 (- (* 63 S6) (* X4 S7)))
 (= X5 (- (* X4 S6) (* 63 S7)))
 (= X5 (+ (* 79 S6) S7))
 (= X5 (- (* 79 S6) S7))
 (= X5 (- S6 (* 79 S7)))
 (= X5 (+ (* 79 S6) (* 79 S7)))
 (= X5 (- (* 79 S6) (* 79 S7)))
 (= X5 (+ (* 79 S6) (* X2 S7)))
 (= X5 (- (* 79 S6) (* X2 S7)))
 (= X5 (- (* X2 S6) (* 79 S7)))
 (= X5 (+ (* 79 S6) (* X3 S7)))
 (= X5 (- (* 79 S6) (* X3 S7)))
 (= X5 (- (* X3 S6) (* 79 S7)))
 (= X5 (+ (* 79 S6) (* X4 S7)))
 (= X5 (- (* 79 S6) (* X4 S7)))
 (= X5 (- (* X4 S6) (* 79 S7)))
 (= X5 (+ (* X2 S6) S7))
 (= X5 (- (* X2 S6) S7))
 (= X5 (- S6 (* X2 S7)))
 (= X5 (+ (* X2 S6) (* X2 S7)))
 (= X5 (- (* X2 S6) (* X2 S7)))
 (= X5 (+ (* X2 S6) (* X3 S7)))
 (= X5 (- (* X2 S6) (* X3 S7)))
 (= X5 (- (* X3 S6) (* X2 S7)))
 (= X5 (+ (* X2 S6) (* X4 S7)))
 (= X5 (- (* X2 S6) (* X4 S7)))
 (= X5 (- (* X4 S6) (* X2 S7)))
 (= X5 (+ (* X3 S6) S7))
 (= X5 (- (* X3 S6) S7))
 (= X5 (- S6 (* X3 S7)))
 (= X5 (+ (* X3 S6) (* X3 S7)))
 (= X5 (- (* X3 S6) (* X3 S7)))
 (= X5 (+ (* X3 S6) (* X4 S7)))
 (= X5 (- (* X3 S6) (* X4 S7)))
 (= X5 (- (* X4 S6) (* X3 S7)))
 (= X5 (+ (* X4 S6) S7))
 (= X5 (- (* X4 S6) S7))
 (= X5 (- S6 (* X4 S7)))
 (= X5 (+ (* X4 S6) (* X4 S7)))
 (= X5 (- (* X4 S6) (* X4 S7)))
))
(assert (and (> X5 0) (< X5 2048) (power2 S6) (power2 S7)))
(assert (or
 (= X6 (+ (* 63 S8) S9))
 (= X6 (- (* 63 S8) S9))
 (= X6 (- S8 (* 63 S9)))
 (= X6 (+ (* 63 S8) (* 63 S9)))
 (= X6 (- (* 63 S8) (* 63 S9)))
 (= X6 (+ (* 63 S8) (* 79 S9)))
 (= X6 (- (* 63 S8) (* 79 S9)))
 (= X6 (- (* 79 S8) (* 63 S9)))
 (= X6 (+ (* 63 S8) (* X2 S9)))
 (= X6 (- (* 63 S8) (* X2 S9)))
 (= X6 (- (* X2 S8) (* 63 S9)))
 (= X6 (+ (* 63 S8) (* X3 S9)))
 (= X6 (- (* 63 S8) (* X3 S9)))
 (= X6 (- (* X3 S8) (* 63 S9)))
 (= X6 (+ (* 63 S8) (* X4 S9)))
 (= X6 (- (* 63 S8) (* X4 S9)))
 (= X6 (- (* X4 S8) (* 63 S9)))
 (= X6 (+ (* 63 S8) (* X5 S9)))
 (= X6 (- (* 63 S8) (* X5 S9)))
 (= X6 (- (* X5 S8) (* 63 S9)))
 (= X6 (+ (* 79 S8) S9))
 (= X6 (- (* 79 S8) S9))
 (= X6 (- S8 (* 79 S9)))
 (= X6 (+ (* 79 S8) (* 79 S9)))
 (= X6 (- (* 79 S8) (* 79 S9)))
 (= X6 (+ (* 79 S8) (* X2 S9)))
 (= X6 (- (* 79 S8) (* X2 S9)))
 (= X6 (- (* X2 S8) (* 79 S9)))
 (= X6 (+ (* 79 S8) (* X3 S9)))
 (= X6 (- (* 79 S8) (* X3 S9)))
 (= X6 (- (* X3 S8) (* 79 S9)))
 (= X6 (+ (* 79 S8) (* X4 S9)))
 (= X6 (- (* 79 S8) (* X4 S9)))
 (= X6 (- (* X4 S8) (* 79 S9)))
 (= X6 (+ (* 79 S8) (* X5 S9)))
 (= X6 (- (* 79 S8) (* X5 S9)))
 (= X6 (- (* X5 S8) (* 79 S9)))
 (= X6 (+ (* X2 S8) S9))
 (= X6 (- (* X2 S8) S9))
 (= X6 (- S8 (* X2 S9)))
 (= X6 (+ (* X2 S8) (* X2 S9)))
 (= X6 (- (* X2 S8) (* X2 S9)))
 (= X6 (+ (* X2 S8) (* X3 S9)))
 (= X6 (- (* X2 S8) (* X3 S9)))
 (= X6 (- (* X3 S8) (* X2 S9)))
 (= X6 (+ (* X2 S8) (* X4 S9)))
 (= X6 (- (* X2 S8) (* X4 S9)))
 (= X6 (- (* X4 S8) (* X2 S9)))
 (= X6 (+ (* X2 S8) (* X5 S9)))
 (= X6 (- (* X2 S8) (* X5 S9)))
 (= X6 (- (* X5 S8) (* X2 S9)))
 (= X6 (+ (* X3 S8) S9))
 (= X6 (- (* X3 S8) S9))
 (= X6 (- S8 (* X3 S9)))
 (= X6 (+ (* X3 S8) (* X3 S9)))
 (= X6 (- (* X3 S8) (* X3 S9)))
 (= X6 (+ (* X3 S8) (* X4 S9)))
 (= X6 (- (* X3 S8) (* X4 S9)))
 (= X6 (- (* X4 S8) (* X3 S9)))
 (= X6 (+ (* X3 S8) (* X5 S9)))
 (= X6 (- (* X3 S8) (* X5 S9)))
 (= X6 (- (* X5 S8) (* X3 S9)))
 (= X6 (+ (* X4 S8) S9))
 (= X6 (- (* X4 S8) S9))
 (= X6 (- S8 (* X4 S9)))
 (= X6 (+ (* X4 S8) (* X4 S9)))
 (= X6 (- (* X4 S8) (* X4 S9)))
 (= X6 (+ (* X4 S8) (* X5 S9)))
 (= X6 (- (* X4 S8) (* X5 S9)))
 (= X6 (- (* X5 S8) (* X4 S9)))
 (= X6 (+ (* X5 S8) S9))
 (= X6 (- (* X5 S8) S9))
 (= X6 (- S8 (* X5 S9)))
 (= X6 (+ (* X5 S8) (* X5 S9)))
 (= X6 (- (* X5 S8) (* X5 S9)))
))
(assert (and (> X6 0) (< X6 2048) (power2 S8) (power2 S9)))
(assert (or
 (= X7 (+ (* 63 S10) S11))
 (= X7 (- (* 63 S10) S11))
 (= X7 (- S10 (* 63 S11)))
 (= X7 (+ (* 63 S10) (* 63 S11)))
 (= X7 (- (* 63 S10) (* 63 S11)))
 (= X7 (+ (* 63 S10) (* 79 S11)))
 (= X7 (- (* 63 S10) (* 79 S11)))
 (= X7 (- (* 79 S10) (* 63 S11)))
 (= X7 (+ (* 63 S10) (* X2 S11)))
 (= X7 (- (* 63 S10) (* X2 S11)))
 (= X7 (- (* X2 S10) (* 63 S11)))
 (= X7 (+ (* 63 S10) (* X3 S11)))
 (= X7 (- (* 63 S10) (* X3 S11)))
 (= X7 (- (* X3 S10) (* 63 S11)))
 (= X7 (+ (* 63 S10) (* X4 S11)))
 (= X7 (- (* 63 S10) (* X4 S11)))
 (= X7 (- (* X4 S10) (* 63 S11)))
 (= X7 (+ (* 63 S10) (* X5 S11)))
 (= X7 (- (* 63 S10) (* X5 S11)))
 (= X7 (- (* X5 S10) (* 63 S11)))
 (= X7 (+ (* 63 S10) (* X6 S11)))
 (= X7 (- (* 63 S10) (* X6 S11)))
 (= X7 (- (* X6 S10) (* 63 S11)))
 (= X7 (+ (* 79 S10) S11))
 (= X7 (- (* 79 S10) S11))
 (= X7 (- S10 (* 79 S11)))
 (= X7 (+ (* 79 S10) (* 79 S11)))
 (= X7 (- (* 79 S10) (* 79 S11)))
 (= X7 (+ (* 79 S10) (* X2 S11)))
 (= X7 (- (* 79 S10) (* X2 S11)))
 (= X7 (- (* X2 S10) (* 79 S11)))
 (= X7 (+ (* 79 S10) (* X3 S11)))
 (= X7 (- (* 79 S10) (* X3 S11)))
 (= X7 (- (* X3 S10) (* 79 S11)))
 (= X7 (+ (* 79 S10) (* X4 S11)))
 (= X7 (- (* 79 S10) (* X4 S11)))
 (= X7 (- (* X4 S10) (* 79 S11)))
 (= X7 (+ (* 79 S10) (* X5 S11)))
 (= X7 (- (* 79 S10) (* X5 S11)))
 (= X7 (- (* X5 S10) (* 79 S11)))
 (= X7 (+ (* 79 S10) (* X6 S11)))
 (= X7 (- (* 79 S10) (* X6 S11)))
 (= X7 (- (* X6 S10) (* 79 S11)))
 (= X7 (+ (* X2 S10) S11))
 (= X7 (- (* X2 S10) S11))
 (= X7 (- S10 (* X2 S11)))
 (= X7 (+ (* X2 S10) (* X2 S11)))
 (= X7 (- (* X2 S10) (* X2 S11)))
 (= X7 (+ (* X2 S10) (* X3 S11)))
 (= X7 (- (* X2 S10) (* X3 S11)))
 (= X7 (- (* X3 S10) (* X2 S11)))
 (= X7 (+ (* X2 S10) (* X4 S11)))
 (= X7 (- (* X2 S10) (* X4 S11)))
 (= X7 (- (* X4 S10) (* X2 S11)))
 (= X7 (+ (* X2 S10) (* X5 S11)))
 (= X7 (- (* X2 S10) (* X5 S11)))
 (= X7 (- (* X5 S10) (* X2 S11)))
 (= X7 (+ (* X2 S10) (* X6 S11)))
 (= X7 (- (* X2 S10) (* X6 S11)))
 (= X7 (- (* X6 S10) (* X2 S11)))
 (= X7 (+ (* X3 S10) S11))
 (= X7 (- (* X3 S10) S11))
 (= X7 (- S10 (* X3 S11)))
 (= X7 (+ (* X3 S10) (* X3 S11)))
 (= X7 (- (* X3 S10) (* X3 S11)))
 (= X7 (+ (* X3 S10) (* X4 S11)))
 (= X7 (- (* X3 S10) (* X4 S11)))
 (= X7 (- (* X4 S10) (* X3 S11)))
 (= X7 (+ (* X3 S10) (* X5 S11)))
 (= X7 (- (* X3 S10) (* X5 S11)))
 (= X7 (- (* X5 S10) (* X3 S11)))
 (= X7 (+ (* X3 S10) (* X6 S11)))
 (= X7 (- (* X3 S10) (* X6 S11)))
 (= X7 (- (* X6 S10) (* X3 S11)))
 (= X7 (+ (* X4 S10) S11))
 (= X7 (- (* X4 S10) S11))
 (= X7 (- S10 (* X4 S11)))
 (= X7 (+ (* X4 S10) (* X4 S11)))
 (= X7 (- (* X4 S10) (* X4 S11)))
 (= X7 (+ (* X4 S10) (* X5 S11)))
 (= X7 (- (* X4 S10) (* X5 S11)))
 (= X7 (- (* X5 S10) (* X4 S11)))
 (= X7 (+ (* X4 S10) (* X6 S11)))
 (= X7 (- (* X4 S10) (* X6 S11)))
 (= X7 (- (* X6 S10) (* X4 S11)))
 (= X7 (+ (* X5 S10) S11))
 (= X7 (- (* X5 S10) S11))
 (= X7 (- S10 (* X5 S11)))
 (= X7 (+ (* X5 S10) (* X5 S11)))
 (= X7 (- (* X5 S10) (* X5 S11)))
 (= X7 (+ (* X5 S10) (* X6 S11)))
 (= X7 (- (* X5 S10) (* X6 S11)))
 (= X7 (- (* X6 S10) (* X5 S11)))
 (= X7 (+ (* X6 S10) S11))
 (= X7 (- (* X6 S10) S11))
 (= X7 (- S10 (* X6 S11)))
 (= X7 (+ (* X6 S10) (* X6 S11)))
 (= X7 (- (* X6 S10) (* X6 S11)))
))
(assert (and (> X7 0) (< X7 2048) (power2 S10) (power2 S11)))
(assert (or
 (= X8 (+ (* 63 S12) S13))
 (= X8 (- (* 63 S12) S13))
 (= X8 (- S12 (* 63 S13)))
 (= X8 (+ (* 63 S12) (* 63 S13)))
 (= X8 (- (* 63 S12) (* 63 S13)))
 (= X8 (+ (* 63 S12) (* 79 S13)))
 (= X8 (- (* 63 S12) (* 79 S13)))
 (= X8 (- (* 79 S12) (* 63 S13)))
 (= X8 (+ (* 63 S12) (* X2 S13)))
 (= X8 (- (* 63 S12) (* X2 S13)))
 (= X8 (- (* X2 S12) (* 63 S13)))
 (= X8 (+ (* 63 S12) (* X3 S13)))
 (= X8 (- (* 63 S12) (* X3 S13)))
 (= X8 (- (* X3 S12) (* 63 S13)))
 (= X8 (+ (* 63 S12) (* X4 S13)))
 (= X8 (- (* 63 S12) (* X4 S13)))
 (= X8 (- (* X4 S12) (* 63 S13)))
 (= X8 (+ (* 63 S12) (* X5 S13)))
 (= X8 (- (* 63 S12) (* X5 S13)))
 (= X8 (- (* X5 S12) (* 63 S13)))
 (= X8 (+ (* 63 S12) (* X6 S13)))
 (= X8 (- (* 63 S12) (* X6 S13)))
 (= X8 (- (* X6 S12) (* 63 S13)))
 (= X8 (+ (* 63 S12) (* X7 S13)))
 (= X8 (- (* 63 S12) (* X7 S13)))
 (= X8 (- (* X7 S12) (* 63 S13)))
 (= X8 (+ (* 79 S12) S13))
 (= X8 (- (* 79 S12) S13))
 (= X8 (- S12 (* 79 S13)))
 (= X8 (+ (* 79 S12) (* 79 S13)))
 (= X8 (- (* 79 S12) (* 79 S13)))
 (= X8 (+ (* 79 S12) (* X2 S13)))
 (= X8 (- (* 79 S12) (* X2 S13)))
 (= X8 (- (* X2 S12) (* 79 S13)))
 (= X8 (+ (* 79 S12) (* X3 S13)))
 (= X8 (- (* 79 S12) (* X3 S13)))
 (= X8 (- (* X3 S12) (* 79 S13)))
 (= X8 (+ (* 79 S12) (* X4 S13)))
 (= X8 (- (* 79 S12) (* X4 S13)))
 (= X8 (- (* X4 S12) (* 79 S13)))
 (= X8 (+ (* 79 S12) (* X5 S13)))
 (= X8 (- (* 79 S12) (* X5 S13)))
 (= X8 (- (* X5 S12) (* 79 S13)))
 (= X8 (+ (* 79 S12) (* X6 S13)))
 (= X8 (- (* 79 S12) (* X6 S13)))
 (= X8 (- (* X6 S12) (* 79 S13)))
 (= X8 (+ (* 79 S12) (* X7 S13)))
 (= X8 (- (* 79 S12) (* X7 S13)))
 (= X8 (- (* X7 S12) (* 79 S13)))
 (= X8 (+ (* X2 S12) S13))
 (= X8 (- (* X2 S12) S13))
 (= X8 (- S12 (* X2 S13)))
 (= X8 (+ (* X2 S12) (* X2 S13)))
 (= X8 (- (* X2 S12) (* X2 S13)))
 (= X8 (+ (* X2 S12) (* X3 S13)))
 (= X8 (- (* X2 S12) (* X3 S13)))
 (= X8 (- (* X3 S12) (* X2 S13)))
 (= X8 (+ (* X2 S12) (* X4 S13)))
 (= X8 (- (* X2 S12) (* X4 S13)))
 (= X8 (- (* X4 S12) (* X2 S13)))
 (= X8 (+ (* X2 S12) (* X5 S13)))
 (= X8 (- (* X2 S12) (* X5 S13)))
 (= X8 (- (* X5 S12) (* X2 S13)))
 (= X8 (+ (* X2 S12) (* X6 S13)))
 (= X8 (- (* X2 S12) (* X6 S13)))
 (= X8 (- (* X6 S12) (* X2 S13)))
 (= X8 (+ (* X2 S12) (* X7 S13)))
 (= X8 (- (* X2 S12) (* X7 S13)))
 (= X8 (- (* X7 S12) (* X2 S13)))
 (= X8 (+ (* X3 S12) S13))
 (= X8 (- (* X3 S12) S13))
 (= X8 (- S12 (* X3 S13)))
 (= X8 (+ (* X3 S12) (* X3 S13)))
 (= X8 (- (* X3 S12) (* X3 S13)))
 (= X8 (+ (* X3 S12) (* X4 S13)))
 (= X8 (- (* X3 S12) (* X4 S13)))
 (= X8 (- (* X4 S12) (* X3 S13)))
 (= X8 (+ (* X3 S12) (* X5 S13)))
 (= X8 (- (* X3 S12) (* X5 S13)))
 (= X8 (- (* X5 S12) (* X3 S13)))
 (= X8 (+ (* X3 S12) (* X6 S13)))
 (= X8 (- (* X3 S12) (* X6 S13)))
 (= X8 (- (* X6 S12) (* X3 S13)))
 (= X8 (+ (* X3 S12) (* X7 S13)))
 (= X8 (- (* X3 S12) (* X7 S13)))
 (= X8 (- (* X7 S12) (* X3 S13)))
 (= X8 (+ (* X4 S12) S13))
 (= X8 (- (* X4 S12) S13))
 (= X8 (- S12 (* X4 S13)))
 (= X8 (+ (* X4 S12) (* X4 S13)))
 (= X8 (- (* X4 S12) (* X4 S13)))
 (= X8 (+ (* X4 S12) (* X5 S13)))
 (= X8 (- (* X4 S12) (* X5 S13)))
 (= X8 (- (* X5 S12) (* X4 S13)))
 (= X8 (+ (* X4 S12) (* X6 S13)))
 (= X8 (- (* X4 S12) (* X6 S13)))
 (= X8 (- (* X6 S12) (* X4 S13)))
 (= X8 (+ (* X4 S12) (* X7 S13)))
 (= X8 (- (* X4 S12) (* X7 S13)))
 (= X8 (- (* X7 S12) (* X4 S13)))
 (= X8 (+ (* X5 S12) S13))
 (= X8 (- (* X5 S12) S13))
 (= X8 (- S12 (* X5 S13)))
 (= X8 (+ (* X5 S12) (* X5 S13)))
 (= X8 (- (* X5 S12) (* X5 S13)))
 (= X8 (+ (* X5 S12) (* X6 S13)))
 (= X8 (- (* X5 S12) (* X6 S13)))
 (= X8 (- (* X6 S12) (* X5 S13)))
 (= X8 (+ (* X5 S12) (* X7 S13)))
 (= X8 (- (* X5 S12) (* X7 S13)))
 (= X8 (- (* X7 S12) (* X5 S13)))
 (= X8 (+ (* X6 S12) S13))
 (= X8 (- (* X6 S12) S13))
 (= X8 (- S12 (* X6 S13)))
 (= X8 (+ (* X6 S12) (* X6 S13)))
 (= X8 (- (* X6 S12) (* X6 S13)))
 (= X8 (+ (* X6 S12) (* X7 S13)))
 (= X8 (- (* X6 S12) (* X7 S13)))
 (= X8 (- (* X7 S12) (* X6 S13)))
 (= X8 (+ (* X7 S12) S13))
 (= X8 (- (* X7 S12) S13))
 (= X8 (- S12 (* X7 S13)))
 (= X8 (+ (* X7 S12) (* X7 S13)))
 (= X8 (- (* X7 S12) (* X7 S13)))
))
(assert (and (> X8 0) (< X8 2048) (power2 S12) (power2 S13)))
(assert (or
 (= X9 (+ (* 63 S14) S15))
 (= X9 (- (* 63 S14) S15))
 (= X9 (- S14 (* 63 S15)))
 (= X9 (+ (* 63 S14) (* 63 S15)))
 (= X9 (- (* 63 S14) (* 63 S15)))
 (= X9 (+ (* 63 S14) (* 79 S15)))
 (= X9 (- (* 63 S14) (* 79 S15)))
 (= X9 (- (* 79 S14) (* 63 S15)))
 (= X9 (+ (* 63 S14) (* X2 S15)))
 (= X9 (- (* 63 S14) (* X2 S15)))
 (= X9 (- (* X2 S14) (* 63 S15)))
 (= X9 (+ (* 63 S14) (* X3 S15)))
 (= X9 (- (* 63 S14) (* X3 S15)))
 (= X9 (- (* X3 S14) (* 63 S15)))
 (= X9 (+ (* 63 S14) (* X4 S15)))
 (= X9 (- (* 63 S14) (* X4 S15)))
 (= X9 (- (* X4 S14) (* 63 S15)))
 (= X9 (+ (* 63 S14) (* X5 S15)))
 (= X9 (- (* 63 S14) (* X5 S15)))
 (= X9 (- (* X5 S14) (* 63 S15)))
 (= X9 (+ (* 63 S14) (* X6 S15)))
 (= X9 (- (* 63 S14) (* X6 S15)))
 (= X9 (- (* X6 S14) (* 63 S15)))
 (= X9 (+ (* 63 S14) (* X7 S15)))
 (= X9 (- (* 63 S14) (* X7 S15)))
 (= X9 (- (* X7 S14) (* 63 S15)))
 (= X9 (+ (* 63 S14) (* X8 S15)))
 (= X9 (- (* 63 S14) (* X8 S15)))
 (= X9 (- (* X8 S14) (* 63 S15)))
 (= X9 (+ (* 79 S14) S15))
 (= X9 (- (* 79 S14) S15))
 (= X9 (- S14 (* 79 S15)))
 (= X9 (+ (* 79 S14) (* 79 S15)))
 (= X9 (- (* 79 S14) (* 79 S15)))
 (= X9 (+ (* 79 S14) (* X2 S15)))
 (= X9 (- (* 79 S14) (* X2 S15)))
 (= X9 (- (* X2 S14) (* 79 S15)))
 (= X9 (+ (* 79 S14) (* X3 S15)))
 (= X9 (- (* 79 S14) (* X3 S15)))
 (= X9 (- (* X3 S14) (* 79 S15)))
 (= X9 (+ (* 79 S14) (* X4 S15)))
 (= X9 (- (* 79 S14) (* X4 S15)))
 (= X9 (- (* X4 S14) (* 79 S15)))
 (= X9 (+ (* 79 S14) (* X5 S15)))
 (= X9 (- (* 79 S14) (* X5 S15)))
 (= X9 (- (* X5 S14) (* 79 S15)))
 (= X9 (+ (* 79 S14) (* X6 S15)))
 (= X9 (- (* 79 S14) (* X6 S15)))
 (= X9 (- (* X6 S14) (* 79 S15)))
 (= X9 (+ (* 79 S14) (* X7 S15)))
 (= X9 (- (* 79 S14) (* X7 S15)))
 (= X9 (- (* X7 S14) (* 79 S15)))
 (= X9 (+ (* 79 S14) (* X8 S15)))
 (= X9 (- (* 79 S14) (* X8 S15)))
 (= X9 (- (* X8 S14) (* 79 S15)))
 (= X9 (+ (* X2 S14) S15))
 (= X9 (- (* X2 S14) S15))
 (= X9 (- S14 (* X2 S15)))
 (= X9 (+ (* X2 S14) (* X2 S15)))
 (= X9 (- (* X2 S14) (* X2 S15)))
 (= X9 (+ (* X2 S14) (* X3 S15)))
 (= X9 (- (* X2 S14) (* X3 S15)))
 (= X9 (- (* X3 S14) (* X2 S15)))
 (= X9 (+ (* X2 S14) (* X4 S15)))
 (= X9 (- (* X2 S14) (* X4 S15)))
 (= X9 (- (* X4 S14) (* X2 S15)))
 (= X9 (+ (* X2 S14) (* X5 S15)))
 (= X9 (- (* X2 S14) (* X5 S15)))
 (= X9 (- (* X5 S14) (* X2 S15)))
 (= X9 (+ (* X2 S14) (* X6 S15)))
 (= X9 (- (* X2 S14) (* X6 S15)))
 (= X9 (- (* X6 S14) (* X2 S15)))
 (= X9 (+ (* X2 S14) (* X7 S15)))
 (= X9 (- (* X2 S14) (* X7 S15)))
 (= X9 (- (* X7 S14) (* X2 S15)))
 (= X9 (+ (* X2 S14) (* X8 S15)))
 (= X9 (- (* X2 S14) (* X8 S15)))
 (= X9 (- (* X8 S14) (* X2 S15)))
 (= X9 (+ (* X3 S14) S15))
 (= X9 (- (* X3 S14) S15))
 (= X9 (- S14 (* X3 S15)))
 (= X9 (+ (* X3 S14) (* X3 S15)))
 (= X9 (- (* X3 S14) (* X3 S15)))
 (= X9 (+ (* X3 S14) (* X4 S15)))
 (= X9 (- (* X3 S14) (* X4 S15)))
 (= X9 (- (* X4 S14) (* X3 S15)))
 (= X9 (+ (* X3 S14) (* X5 S15)))
 (= X9 (- (* X3 S14) (* X5 S15)))
 (= X9 (- (* X5 S14) (* X3 S15)))
 (= X9 (+ (* X3 S14) (* X6 S15)))
 (= X9 (- (* X3 S14) (* X6 S15)))
 (= X9 (- (* X6 S14) (* X3 S15)))
 (= X9 (+ (* X3 S14) (* X7 S15)))
 (= X9 (- (* X3 S14) (* X7 S15)))
 (= X9 (- (* X7 S14) (* X3 S15)))
 (= X9 (+ (* X3 S14) (* X8 S15)))
 (= X9 (- (* X3 S14) (* X8 S15)))
 (= X9 (- (* X8 S14) (* X3 S15)))
 (= X9 (+ (* X4 S14) S15))
 (= X9 (- (* X4 S14) S15))
 (= X9 (- S14 (* X4 S15)))
 (= X9 (+ (* X4 S14) (* X4 S15)))
 (= X9 (- (* X4 S14) (* X4 S15)))
 (= X9 (+ (* X4 S14) (* X5 S15)))
 (= X9 (- (* X4 S14) (* X5 S15)))
 (= X9 (- (* X5 S14) (* X4 S15)))
 (= X9 (+ (* X4 S14) (* X6 S15)))
 (= X9 (- (* X4 S14) (* X6 S15)))
 (= X9 (- (* X6 S14) (* X4 S15)))
 (= X9 (+ (* X4 S14) (* X7 S15)))
 (= X9 (- (* X4 S14) (* X7 S15)))
 (= X9 (- (* X7 S14) (* X4 S15)))
 (= X9 (+ (* X4 S14) (* X8 S15)))
 (= X9 (- (* X4 S14) (* X8 S15)))
 (= X9 (- (* X8 S14) (* X4 S15)))
 (= X9 (+ (* X5 S14) S15))
 (= X9 (- (* X5 S14) S15))
 (= X9 (- S14 (* X5 S15)))
 (= X9 (+ (* X5 S14) (* X5 S15)))
 (= X9 (- (* X5 S14) (* X5 S15)))
 (= X9 (+ (* X5 S14) (* X6 S15)))
 (= X9 (- (* X5 S14) (* X6 S15)))
 (= X9 (- (* X6 S14) (* X5 S15)))
 (= X9 (+ (* X5 S14) (* X7 S15)))
 (= X9 (- (* X5 S14) (* X7 S15)))
 (= X9 (- (* X7 S14) (* X5 S15)))
 (= X9 (+ (* X5 S14) (* X8 S15)))
 (= X9 (- (* X5 S14) (* X8 S15)))
 (= X9 (- (* X8 S14) (* X5 S15)))
 (= X9 (+ (* X6 S14) S15))
 (= X9 (- (* X6 S14) S15))
 (= X9 (- S14 (* X6 S15)))
 (= X9 (+ (* X6 S14) (* X6 S15)))
 (= X9 (- (* X6 S14) (* X6 S15)))
 (= X9 (+ (* X6 S14) (* X7 S15)))
 (= X9 (- (* X6 S14) (* X7 S15)))
 (= X9 (- (* X7 S14) (* X6 S15)))
 (= X9 (+ (* X6 S14) (* X8 S15)))
 (= X9 (- (* X6 S14) (* X8 S15)))
 (= X9 (- (* X8 S14) (* X6 S15)))
 (= X9 (+ (* X7 S14) S15))
 (= X9 (- (* X7 S14) S15))
 (= X9 (- S14 (* X7 S15)))
 (= X9 (+ (* X7 S14) (* X7 S15)))
 (= X9 (- (* X7 S14) (* X7 S15)))
 (= X9 (+ (* X7 S14) (* X8 S15)))
 (= X9 (- (* X7 S14) (* X8 S15)))
 (= X9 (- (* X8 S14) (* X7 S15)))
 (= X9 (+ (* X8 S14) S15))
 (= X9 (- (* X8 S14) S15))
 (= X9 (- S14 (* X8 S15)))
 (= X9 (+ (* X8 S14) (* X8 S15)))
 (= X9 (- (* X8 S14) (* X8 S15)))
))
(assert (and (> X9 0) (< X9 2048) (power2 S14) (power2 S15)))
(assert (or
 (= X10 (+ (* 63 S16) S17))
 (= X10 (- (* 63 S16) S17))
 (= X10 (- S16 (* 63 S17)))
 (= X10 (+ (* 63 S16) (* 63 S17)))
 (= X10 (- (* 63 S16) (* 63 S17)))
 (= X10 (+ (* 63 S16) (* 79 S17)))
 (= X10 (- (* 63 S16) (* 79 S17)))
 (= X10 (- (* 79 S16) (* 63 S17)))
 (= X10 (+ (* 63 S16) (* X2 S17)))
 (= X10 (- (* 63 S16) (* X2 S17)))
 (= X10 (- (* X2 S16) (* 63 S17)))
 (= X10 (+ (* 63 S16) (* X3 S17)))
 (= X10 (- (* 63 S16) (* X3 S17)))
 (= X10 (- (* X3 S16) (* 63 S17)))
 (= X10 (+ (* 63 S16) (* X4 S17)))
 (= X10 (- (* 63 S16) (* X4 S17)))
 (= X10 (- (* X4 S16) (* 63 S17)))
 (= X10 (+ (* 63 S16) (* X5 S17)))
 (= X10 (- (* 63 S16) (* X5 S17)))
 (= X10 (- (* X5 S16) (* 63 S17)))
 (= X10 (+ (* 63 S16) (* X6 S17)))
 (= X10 (- (* 63 S16) (* X6 S17)))
 (= X10 (- (* X6 S16) (* 63 S17)))
 (= X10 (+ (* 63 S16) (* X7 S17)))
 (= X10 (- (* 63 S16) (* X7 S17)))
 (= X10 (- (* X7 S16) (* 63 S17)))
 (= X10 (+ (* 63 S16) (* X8 S17)))
 (= X10 (- (* 63 S16) (* X8 S17)))
 (= X10 (- (* X8 S16) (* 63 S17)))
 (= X10 (+ (* 63 S16) (* X9 S17)))
 (= X10 (- (* 63 S16) (* X9 S17)))
 (= X10 (- (* X9 S16) (* 63 S17)))
 (= X10 (+ (* 79 S16) S17))
 (= X10 (- (* 79 S16) S17))
 (= X10 (- S16 (* 79 S17)))
 (= X10 (+ (* 79 S16) (* 79 S17)))
 (= X10 (- (* 79 S16) (* 79 S17)))
 (= X10 (+ (* 79 S16) (* X2 S17)))
 (= X10 (- (* 79 S16) (* X2 S17)))
 (= X10 (- (* X2 S16) (* 79 S17)))
 (= X10 (+ (* 79 S16) (* X3 S17)))
 (= X10 (- (* 79 S16) (* X3 S17)))
 (= X10 (- (* X3 S16) (* 79 S17)))
 (= X10 (+ (* 79 S16) (* X4 S17)))
 (= X10 (- (* 79 S16) (* X4 S17)))
 (= X10 (- (* X4 S16) (* 79 S17)))
 (= X10 (+ (* 79 S16) (* X5 S17)))
 (= X10 (- (* 79 S16) (* X5 S17)))
 (= X10 (- (* X5 S16) (* 79 S17)))
 (= X10 (+ (* 79 S16) (* X6 S17)))
 (= X10 (- (* 79 S16) (* X6 S17)))
 (= X10 (- (* X6 S16) (* 79 S17)))
 (= X10 (+ (* 79 S16) (* X7 S17)))
 (= X10 (- (* 79 S16) (* X7 S17)))
 (= X10 (- (* X7 S16) (* 79 S17)))
 (= X10 (+ (* 79 S16) (* X8 S17)))
 (= X10 (- (* 79 S16) (* X8 S17)))
 (= X10 (- (* X8 S16) (* 79 S17)))
 (= X10 (+ (* 79 S16) (* X9 S17)))
 (= X10 (- (* 79 S16) (* X9 S17)))
 (= X10 (- (* X9 S16) (* 79 S17)))
 (= X10 (+ (* X2 S16) S17))
 (= X10 (- (* X2 S16) S17))
 (= X10 (- S16 (* X2 S17)))
 (= X10 (+ (* X2 S16) (* X2 S17)))
 (= X10 (- (* X2 S16) (* X2 S17)))
 (= X10 (+ (* X2 S16) (* X3 S17)))
 (= X10 (- (* X2 S16) (* X3 S17)))
 (= X10 (- (* X3 S16) (* X2 S17)))
 (= X10 (+ (* X2 S16) (* X4 S17)))
 (= X10 (- (* X2 S16) (* X4 S17)))
 (= X10 (- (* X4 S16) (* X2 S17)))
 (= X10 (+ (* X2 S16) (* X5 S17)))
 (= X10 (- (* X2 S16) (* X5 S17)))
 (= X10 (- (* X5 S16) (* X2 S17)))
 (= X10 (+ (* X2 S16) (* X6 S17)))
 (= X10 (- (* X2 S16) (* X6 S17)))
 (= X10 (- (* X6 S16) (* X2 S17)))
 (= X10 (+ (* X2 S16) (* X7 S17)))
 (= X10 (- (* X2 S16) (* X7 S17)))
 (= X10 (- (* X7 S16) (* X2 S17)))
 (= X10 (+ (* X2 S16) (* X8 S17)))
 (= X10 (- (* X2 S16) (* X8 S17)))
 (= X10 (- (* X8 S16) (* X2 S17)))
 (= X10 (+ (* X2 S16) (* X9 S17)))
 (= X10 (- (* X2 S16) (* X9 S17)))
 (= X10 (- (* X9 S16) (* X2 S17)))
 (= X10 (+ (* X3 S16) S17))
 (= X10 (- (* X3 S16) S17))
 (= X10 (- S16 (* X3 S17)))
 (= X10 (+ (* X3 S16) (* X3 S17)))
 (= X10 (- (* X3 S16) (* X3 S17)))
 (= X10 (+ (* X3 S16) (* X4 S17)))
 (= X10 (- (* X3 S16) (* X4 S17)))
 (= X10 (- (* X4 S16) (* X3 S17)))
 (= X10 (+ (* X3 S16) (* X5 S17)))
 (= X10 (- (* X3 S16) (* X5 S17)))
 (= X10 (- (* X5 S16) (* X3 S17)))
 (= X10 (+ (* X3 S16) (* X6 S17)))
 (= X10 (- (* X3 S16) (* X6 S17)))
 (= X10 (- (* X6 S16) (* X3 S17)))
 (= X10 (+ (* X3 S16) (* X7 S17)))
 (= X10 (- (* X3 S16) (* X7 S17)))
 (= X10 (- (* X7 S16) (* X3 S17)))
 (= X10 (+ (* X3 S16) (* X8 S17)))
 (= X10 (- (* X3 S16) (* X8 S17)))
 (= X10 (- (* X8 S16) (* X3 S17)))
 (= X10 (+ (* X3 S16) (* X9 S17)))
 (= X10 (- (* X3 S16) (* X9 S17)))
 (= X10 (- (* X9 S16) (* X3 S17)))
 (= X10 (+ (* X4 S16) S17))
 (= X10 (- (* X4 S16) S17))
 (= X10 (- S16 (* X4 S17)))
 (= X10 (+ (* X4 S16) (* X4 S17)))
 (= X10 (- (* X4 S16) (* X4 S17)))
 (= X10 (+ (* X4 S16) (* X5 S17)))
 (= X10 (- (* X4 S16) (* X5 S17)))
 (= X10 (- (* X5 S16) (* X4 S17)))
 (= X10 (+ (* X4 S16) (* X6 S17)))
 (= X10 (- (* X4 S16) (* X6 S17)))
 (= X10 (- (* X6 S16) (* X4 S17)))
 (= X10 (+ (* X4 S16) (* X7 S17)))
 (= X10 (- (* X4 S16) (* X7 S17)))
 (= X10 (- (* X7 S16) (* X4 S17)))
 (= X10 (+ (* X4 S16) (* X8 S17)))
 (= X10 (- (* X4 S16) (* X8 S17)))
 (= X10 (- (* X8 S16) (* X4 S17)))
 (= X10 (+ (* X4 S16) (* X9 S17)))
 (= X10 (- (* X4 S16) (* X9 S17)))
 (= X10 (- (* X9 S16) (* X4 S17)))
 (= X10 (+ (* X5 S16) S17))
 (= X10 (- (* X5 S16) S17))
 (= X10 (- S16 (* X5 S17)))
 (= X10 (+ (* X5 S16) (* X5 S17)))
 (= X10 (- (* X5 S16) (* X5 S17)))
 (= X10 (+ (* X5 S16) (* X6 S17)))
 (= X10 (- (* X5 S16) (* X6 S17)))
 (= X10 (- (* X6 S16) (* X5 S17)))
 (= X10 (+ (* X5 S16) (* X7 S17)))
 (= X10 (- (* X5 S16) (* X7 S17)))
 (= X10 (- (* X7 S16) (* X5 S17)))
 (= X10 (+ (* X5 S16) (* X8 S17)))
 (= X10 (- (* X5 S16) (* X8 S17)))
 (= X10 (- (* X8 S16) (* X5 S17)))
 (= X10 (+ (* X5 S16) (* X9 S17)))
 (= X10 (- (* X5 S16) (* X9 S17)))
 (= X10 (- (* X9 S16) (* X5 S17)))
 (= X10 (+ (* X6 S16) S17))
 (= X10 (- (* X6 S16) S17))
 (= X10 (- S16 (* X6 S17)))
 (= X10 (+ (* X6 S16) (* X6 S17)))
 (= X10 (- (* X6 S16) (* X6 S17)))
 (= X10 (+ (* X6 S16) (* X7 S17)))
 (= X10 (- (* X6 S16) (* X7 S17)))
 (= X10 (- (* X7 S16) (* X6 S17)))
 (= X10 (+ (* X6 S16) (* X8 S17)))
 (= X10 (- (* X6 S16) (* X8 S17)))
 (= X10 (- (* X8 S16) (* X6 S17)))
 (= X10 (+ (* X6 S16) (* X9 S17)))
 (= X10 (- (* X6 S16) (* X9 S17)))
 (= X10 (- (* X9 S16) (* X6 S17)))
 (= X10 (+ (* X7 S16) S17))
 (= X10 (- (* X7 S16) S17))
 (= X10 (- S16 (* X7 S17)))
 (= X10 (+ (* X7 S16) (* X7 S17)))
 (= X10 (- (* X7 S16) (* X7 S17)))
 (= X10 (+ (* X7 S16) (* X8 S17)))
 (= X10 (- (* X7 S16) (* X8 S17)))
 (= X10 (- (* X8 S16) (* X7 S17)))
 (= X10 (+ (* X7 S16) (* X9 S17)))
 (= X10 (- (* X7 S16) (* X9 S17)))
 (= X10 (- (* X9 S16) (* X7 S17)))
 (= X10 (+ (* X8 S16) S17))
 (= X10 (- (* X8 S16) S17))
 (= X10 (- S16 (* X8 S17)))
 (= X10 (+ (* X8 S16) (* X8 S17)))
 (= X10 (- (* X8 S16) (* X8 S17)))
 (= X10 (+ (* X8 S16) (* X9 S17)))
 (= X10 (- (* X8 S16) (* X9 S17)))
 (= X10 (- (* X9 S16) (* X8 S17)))
 (= X10 (+ (* X9 S16) S17))
 (= X10 (- (* X9 S16) S17))
 (= X10 (- S16 (* X9 S17)))
 (= X10 (+ (* X9 S16) (* X9 S17)))
 (= X10 (- (* X9 S16) (* X9 S17)))
))
(assert (and (> X10 0) (< X10 2048) (power2 S16) (power2 S17)))
(assert (or
 (= X3 777)
 (= X4 777)
 (= X5 777)
 (= X6 777)
 (= X7 777)
 (= X8 777)
 (= X9 777)
 (= X10 777)
))
(assert (or
 (= X3 887)
 (= X4 887)
 (= X5 887)
 (= X6 887)
 (= X7 887)
 (= X8 887)
 (= X9 887)
 (= X10 887)
))
(assert (or
 (= X3 169)
 (= X4 169)
 (= X5 169)
 (= X6 169)
 (= X7 169)
 (= X8 169)
 (= X9 169)
 (= X10 169)
))
(assert (or
 (= X3 11)
 (= X4 11)
 (= X5 11)
 (= X6 11)
 (= X7 11)
 (= X8 11)
 (= X9 11)
 (= X10 11)
))
(assert (or
 (= X3 943)
 (= X4 943)
 (= X5 943)
 (= X6 943)
 (= X7 943)
 (= X8 943)
 (= X9 943)
 (= X10 943)
))
(assert (or
 (= X3 947)
 (= X4 947)
 (= X5 947)
 (= X6 947)
 (= X7 947)
 (= X8 947)
 (= X9 947)
 (= X10 947)
))
(assert (or
 (= X3 411)
 (= X4 411)
 (= X5 411)
 (= X6 411)
 (= X7 411)
 (= X8 411)
 (= X9 411)
 (= X10 411)
))
(assert (or
 (= X3 381)
 (= X4 381)
 (= X5 381)
 (= X6 381)
 (= X7 381)
 (= X8 381)
 (= X9 381)
 (= X10 381)
))
(check-sat)
(exit)
